2555.0
2721.0
2295.0
2406.0
2438.0
2196.0
2339.0
2617.0
2263.0
2258.0
2232.0
2264.0
2223.0
2289.0
2321.0
2521.0
2118.0
2203.0
2302.0
2309.0
2778.0
2508.0
2763.0
2395.0
2312.0
2341.0
2313.0
2896.0
2462.0
2564.0